p edge 44 89
e 1 4
e 1 5
e 1 6
e 1 7
e 1 10
e 1 17
e 1 18
e 1 19
e 1 24
e 2 6
e 2 7
e 2 9
e 2 11
e 2 13
e 2 17
e 2 18
e 2 22
e 2 38
e 3 7
e 3 8
e 3 9
e 3 14
e 3 15
e 3 20
e 3 32
e 3 37
e 4 10
e 4 18
e 4 24
e 4 31
e 5 7
e 5 13
e 5 17
e 5 22
e 5 23
e 5 29
e 6 11
e 6 18
e 6 19
e 6 24
e 6 26
e 6 33
e 6 38
e 7 8
e 7 11
e 7 17
e 7 21
e 8 13
e 8 14
e 8 17
e 8 21
e 9 14
e 9 20
e 9 22
e 10 11
e 10 18
e 10 24
e 10 32
e 11 17
e 11 18
e 11 32
e 11 38
e 12 16
e 12 34
e 12 36
e 13 22
e 14 21
e 15 20
e 15 37
e 16 42
e 16 43
e 17 21
e 18 19
e 18 24
e 18 38
e 19 24
e 19 33
e 23 27
e 23 28
e 23 29
e 25 35
e 25 39
e 25 40
e 27 28
e 27 41
e 28 29
e 30 44
e 35 39
e 42 43
